benchmarks_vrp/CMT5/no_cluster/CMT5_9.vrp
NAME: CMT5_9
TYPE: CVRP
COMMENT: 1291.29 - Cluster Nr.9
DIMENSION: 11
CAPACITY: 200
EDGE_WEIGHT_TYPE: EUC_2D
NODE_COORD_TYPE: TWOD_COORDS
NODE_COORD_SECTION: 
3 24 58
1 25 55
5 30 60
7 21 45
11 31 52
2 30 50
6 26 52
9 35 35
10 30 60
4 26 59
8 21 47
DEPOT_SECTION: 
9
-1
DEMAND_SECTION: 
7 11
9 0
3 19
2 33
8 15
5 16
11 27
4 29
1 17
6 9
10 16
EOF
