benchmarks_vrp/CMT5/no_cluster/CMT5_9.tour
NAME: CMT5_9 solution
TYPE: TOUR
TOUR_SECTION:
9 2 11 5 10 4 3 1 6 8 7 -1
-1
EOF